144 300 22 171 194 192 141 149 100 77 76 81 184 65 199 19 6 145 100 22 186 115 2 69 158 49 171 121 186 137 39 123 32 12 93 25 3 185 125 54 62 1 86 45 65 85 64 22 181 115 195 166 181 197 186 139 197 109 59 134 45 49 56 76 61 148 53 63 133 177 69 146 177 154 190 193 38 5 14 170 120 161 135 100 157 73 38 105 181 49 190 177 97 45 52 109 144 56 124 28 33 192 173 161 145 115 154 135 119 119 104 38 79 191 138 187 63 127 43 195 175 32 171 24 28 174 132 124 30 7 151 14 198 76 174 95 142 79 29 60 150 132 98 28 74 187 